(declare-fun syscall_stub_sched_getaffinity_90_64 () (_ BitVec 64))
(assert (and (bvule ((_ extract 31 0) syscall_stub_sched_getaffinity_90_64) #xfffff000)))
(define-fun goal () (_ BitVec 64) (let ((a!1 (concat (concat (concat ((_ extract 31 31)
                                     syscall_stub_sched_getaffinity_90_64)
                                   ((_ extract 31 31)
                                     syscall_stub_sched_getaffinity_90_64))
                           ((_ extract 31 31)
                             syscall_stub_sched_getaffinity_90_64))
                   ((_ extract 31 31) syscall_stub_sched_getaffinity_90_64))))
(let ((a!2 (concat (concat (concat a!1
                                   ((_ extract 31 31)
                                     syscall_stub_sched_getaffinity_90_64))
                           ((_ extract 31 31)
                             syscall_stub_sched_getaffinity_90_64))
                   ((_ extract 31 31) syscall_stub_sched_getaffinity_90_64))))
(let ((a!3 (concat (concat (concat a!2
                                   ((_ extract 31 31)
                                     syscall_stub_sched_getaffinity_90_64))
                           ((_ extract 31 31)
                             syscall_stub_sched_getaffinity_90_64))
                   ((_ extract 31 31) syscall_stub_sched_getaffinity_90_64))))
(let ((a!4 (concat (concat (concat a!3
                                   ((_ extract 31 31)
                                     syscall_stub_sched_getaffinity_90_64))
                           ((_ extract 31 31)
                             syscall_stub_sched_getaffinity_90_64))
                   ((_ extract 31 31) syscall_stub_sched_getaffinity_90_64))))
(let ((a!5 (concat (concat (concat a!4
                                   ((_ extract 31 31)
                                     syscall_stub_sched_getaffinity_90_64))
                           ((_ extract 31 31)
                             syscall_stub_sched_getaffinity_90_64))
                   ((_ extract 31 31) syscall_stub_sched_getaffinity_90_64))))
(let ((a!6 (concat (concat (concat a!5
                                   ((_ extract 31 31)
                                     syscall_stub_sched_getaffinity_90_64))
                           ((_ extract 31 31)
                             syscall_stub_sched_getaffinity_90_64))
                   ((_ extract 31 31) syscall_stub_sched_getaffinity_90_64))))
(let ((a!7 (concat (concat (concat a!6
                                   ((_ extract 31 31)
                                     syscall_stub_sched_getaffinity_90_64))
                           ((_ extract 31 31)
                             syscall_stub_sched_getaffinity_90_64))
                   ((_ extract 31 31) syscall_stub_sched_getaffinity_90_64))))
(let ((a!8 (concat (concat (concat a!7
                                   ((_ extract 31 31)
                                     syscall_stub_sched_getaffinity_90_64))
                           ((_ extract 31 31)
                             syscall_stub_sched_getaffinity_90_64))
                   ((_ extract 31 31) syscall_stub_sched_getaffinity_90_64))))
(let ((a!9 (concat (concat (concat a!8
                                   ((_ extract 31 31)
                                     syscall_stub_sched_getaffinity_90_64))
                           ((_ extract 31 31)
                             syscall_stub_sched_getaffinity_90_64))
                   ((_ extract 31 31) syscall_stub_sched_getaffinity_90_64))))
(let ((a!10 (concat (concat (concat a!9
                                    ((_ extract 31 31)
                                      syscall_stub_sched_getaffinity_90_64))
                            ((_ extract 31 31)
                              syscall_stub_sched_getaffinity_90_64))
                    ((_ extract 31 31) syscall_stub_sched_getaffinity_90_64))))
(let ((a!11 (bvmul #xffffffffffffffff
                   (concat (concat a!10
                                   ((_ extract 31 31)
                                     syscall_stub_sched_getaffinity_90_64))
                           ((_ extract 31 0)
                             syscall_stub_sched_getaffinity_90_64)))))
  (bvadd #x0000000000000040 a!11))))))))))))) 
(minimize goal)
(check-sat)